Version identifier: 20.1.0.0 | 2020-11-10 | 9bedb6d68
Tried aggregator 2 times.
MIP Presolve eliminated 1275 rows and 664 columns.
MIP Presolve modified 3136 coefficients.
Aggregator did 127 substitutions.
Reduced MIP has 1807 rows, 1424 columns, and 5910 nonzeros.
Reduced MIP has 283 binaries, 1141 generals, 0 SOSs, and 0 indicators.
Presolve time = 0.02 sec. (7.42 ticks)
Found incumbent of value 1841.000000 after 0.03 sec. (14.62 ticks)
Probing fixed 40 vars, tightened 440 bounds.
Probing time = 0.00 sec. (1.23 ticks)
Tried aggregator 2 times.
Detecting symmetries...
MIP Presolve eliminated 778 rows and 98 columns.
MIP Presolve modified 179 coefficients.
Aggregator did 38 substitutions.
Reduced MIP has 991 rows, 1288 columns, and 3222 nonzeros.
Reduced MIP has 467 binaries, 821 generals, 0 SOSs, and 0 indicators.
Presolve time = 0.01 sec. (5.27 ticks)
Probing time = 0.00 sec. (0.33 ticks)
Clique table members: 85.
MIP emphasis: balance optimality and feasibility.
MIP search method: dynamic search.
Parallel mode: deterministic, using up to 24 threads.
Root relaxation solution time = 0.01 sec. (2.35 ticks)

        Nodes                                         Cuts/
   Node  Left     Objective  IInf  Best Integer    Best Bound    ItCnt     Gap

*     0+    0                         1841.0000        0.0000           100.00%
*     0+    0                           28.0000        0.0000           100.00%
      0     0        0.0000    49       28.0000        0.0000      280  100.00%
      0     0        0.0000    31       28.0000      Cuts: 55      474  100.00%
      0     0        0.2727   265       28.0000     Cuts: 109      744   99.03%
*     0+    0                           15.0000        0.2727            98.18%
      0     0        0.3333    70       15.0000     Cuts: 100      931   97.78%
      0     0        0.3333   194       15.0000      Cuts: 88     1149   97.78%
*     0+    0                           11.0000        0.3333            96.97%
*     0+    0                            6.0000        0.3333            94.44%
      0     0        cutoff              6.0000        6.0000     1153    0.00%
Elapsed time = 1.18 sec. (97.71 ticks, tree = 0.01 MB, solutions = 5)

Clique cuts applied:  7
Cover cuts applied:  8
Implied bound cuts applied:  55
Flow cuts applied:  2
Mixed integer rounding cuts applied:  19
Zero-half cuts applied:  84
Lift and project cuts applied:  2
Gomory fractional cuts applied:  10

Root node processing (before b&c):
  Real time             =    1.18 sec. (97.85 ticks)
Parallel b&c, 24 threads:
  Real time             =    0.00 sec. (0.00 ticks)
  Sync time (average)   =    0.00 sec.
  Wait time (average)   =    0.00 sec.
                          ------------
Total (root+branch&cut) =    1.18 sec. (97.85 ticks)

Solution status = Optimal
Solution LB = 6
Solution UB = 6
Runtime = 1.18293 seconds
	Command being timed: "/home/min/git_repos/CS598MEBProject/CNT-ILP/build/cnt -s 2 ./output/k8_n20/simC_c1_k8_n20_u1_s1_del02.input-right.cnp"
	User time (seconds): 17.65
	System time (seconds): 0.11
	Percent of CPU this job got: 1469%
	Elapsed (wall clock) time (h:mm:ss or m:ss): 0:01.20
	Average shared text size (kbytes): 0
	Average unshared data size (kbytes): 0
	Average stack size (kbytes): 0
	Average total size (kbytes): 0
	Maximum resident set size (kbytes): 99212
	Average resident set size (kbytes): 0
	Major (requiring I/O) page faults: 0
	Minor (reclaiming a frame) page faults: 29917
	Voluntary context switches: 5906
	Involuntary context switches: 2138
	Swaps: 0
	File system inputs: 0
	File system outputs: 16
	Socket messages sent: 0
	Socket messages received: 0
	Signals delivered: 0
	Page size (bytes): 4096
	Exit status: 0
